letting initialStacks = [25, 10, 9, 5, 2, 43, 31, 36, 18, 51, 14, 11, 34, 8, 27, 1, 28, 12, 49, 16, 15, 22, 40, 20, 19, 35, 39, 46, 50, 38, 21, 47, 6, 41, 4, 3, 42, 29, 37, 45, 17, 13, 33, 32, 44, 24, 48, 26, 23, 30, 7]
